single
title
Quadruple Perovskite
end
vectors
0.00000 -11.85000 11.85000 
3.95000 0.00000 0.00000 
0.00000 3.95000 3.95000 
frac
K  c 0.00000000 0.00000000 0.00000000 
K  c 0.16666667 0.00000000 0.50000000 
K  c 0.33333333 0.00000000 0.00000000 
La c 0.50000000 0.00000000 0.50000000 
La c 0.66666667 0.00000000 0.00000000 
La c 0.83333333 0.00000000 0.50000000 
Nb c 0.00000000 0.50000000 0.50000000 
Nb c 0.16666667 0.50000000 0.00000000 
Nb c 0.33333333 0.50000000 0.50000000 
Fe c 0.50000000 0.50000000 0.00000000 
Fe c 0.66666667 0.50000000 0.50000000 
Fe c 0.83333333 0.50000000 0.00000000 
O  c 0.91666667 0.50000000 0.25000000 
O  c 0.08333333 0.50000000 0.25000000 
O  c 0.00000000 0.00000000 0.50000000 
O  c 0.08333333 0.50000000 0.75000000 
O  c 0.25000000 0.50000000 0.75000000 
O  c 0.16666667 0.00000000 0.00000000 
O  c 0.25000000 0.50000000 0.25000000 
O  c 0.41666667 0.50000000 0.25000000 
O  c 0.33333333 0.00000000 0.50000000 
O  c 0.41666667 0.50000000 0.75000000 
O  c 0.58333333 0.50000000 0.75000000 
O  c 0.50000000 0.00000000 0.00000000 
O  c 0.58333333 0.50000000 0.25000000 
O  c 0.75000000 0.50000000 0.25000000 
O  c 0.66666667 0.00000000 0.50000000 
O  c 0.75000000 0.50000000 0.75000000 
O  c 0.91666667 0.50000000 0.75000000 
O  c 0.83333333 0.00000000 0.00000000 
species 5
K  core  1.0
La core  3.0
Fe core  3.0
Nb core  5.0
O  core -2.0
output cif output.cif
