single kfull
title
Quadruple Perovskite
end
cell
23.7000  11.172287  33.516861   60.000   45.000   90.000
frac
   K      0.000000      0.000000      0.000000
   K      0.000000      0.500000      0.000000
   K      0.000000      0.000000      0.166667
   K      0.000000      0.500000      0.166667
   K      0.000000      0.000000      0.333333
   K      0.000000      0.500000      0.333333
   K      0.000000      0.000000      0.500000
   K      0.000000      0.500000      0.500000
   K      0.000000      0.000000      0.666667
   K      0.000000      0.500000      0.666667
   K      0.000000      0.000000      0.833333
   K      0.000000      0.500000      0.833333
   K      0.166667      0.000000      0.000000
   K      0.166667      0.500000      0.000000
   K      0.166667      0.000000      0.166667
   K      0.166667      0.500000      0.166667
   K      0.166667      0.000000      0.333333
   K      0.166667      0.500000      0.333333
   K      0.166667      0.000000      0.500000
   K      0.166667      0.500000      0.500000
   K      0.166667      0.000000      0.666667
   K      0.166667      0.500000      0.666667
   K      0.166667      0.000000      0.833333
   K      0.166667      0.500000      0.833333
   K      0.333333      0.000000      0.000000
   K      0.333333      0.500000      0.000000
   K      0.333333      0.000000      0.166667
   K      0.333333      0.500000      0.166667
   K      0.333333      0.000000      0.333333
   K      0.333333      0.500000      0.333333
   K      0.333333      0.000000      0.500000
   K      0.333333      0.500000      0.500000
   K      0.333333      0.000000      0.666667
   K      0.333333      0.500000      0.666667
   K      0.333333      0.000000      0.833333
   K      0.333333      0.500000      0.833333
   La      0.500000      0.000000      0.000000
   La      0.500000      0.500000      0.000000
   La      0.500000      0.000000      0.166667
   La      0.500000      0.500000      0.166667
   La      0.500000      0.000000      0.333333
   La      0.500000      0.500000      0.333333
   La      0.500000      0.000000      0.500000
   La      0.500000      0.500000      0.500000
   La      0.500000      0.000000      0.666667
   La      0.500000      0.500000      0.666667
   La      0.500000      0.000000      0.833333
   La      0.500000      0.500000      0.833333
   La      0.666667      0.000000      0.000000
   La      0.666667      0.500000      0.000000
   La      0.666667      0.000000      0.166667
   La      0.666667      0.500000      0.166667
   La      0.666667      0.000000      0.333333
   La      0.666667      0.500000      0.333333
   La      0.666667      0.000000      0.500000
   La      0.666667      0.500000      0.500000
   La      0.666667      0.000000      0.666667
   La      0.666667      0.500000      0.666667
   La      0.666667      0.000000      0.833333
   La      0.666667      0.500000      0.833333
   La      0.833333      0.000000      0.000000
   La      0.833333      0.500000      0.000000
   La      0.833333      0.000000      0.166667
   La      0.833333      0.500000      0.166667
   La      0.833333      0.000000      0.333333
   La      0.833333      0.500000      0.333333
   La      0.833333      0.000000      0.500000
   La      0.833333      0.500000      0.500000
   La      0.833333      0.000000      0.666667
   La      0.833333      0.500000      0.666667
   La      0.833333      0.000000      0.833333
   La      0.833333      0.500000      0.833333
   Nb     0.083333      0.250000      0.000000
   Nb     0.083333      0.750000      0.000000
   Nb     0.083333      0.250000      0.166667
   Nb     0.083333      0.750000      0.166667
   Nb     0.083333      0.250000      0.333333
   Nb     0.083333      0.750000      0.333333
   Fe     0.083333      0.250000      0.500000
   Fe     0.083333      0.750000      0.500000
   Fe     0.083333      0.250000      0.666667
   Fe     0.083333      0.750000      0.666667
   Fe     0.083333      0.250000      0.833333
   Fe     0.083333      0.750000      0.833333
   Nb     0.250000      0.250000      0.000000
   Nb     0.250000      0.750000      0.000000
   Nb     0.250000      0.250000      0.166667
   Nb     0.250000      0.750000      0.166667
   Nb     0.250000      0.250000      0.333333
   Nb     0.250000      0.750000      0.333333
   Fe     0.250000      0.250000      0.500000
   Fe     0.250000      0.750000      0.500000
   Fe     0.250000      0.250000      0.666667
   Fe     0.250000      0.750000      0.666667
   Fe     0.250000      0.250000      0.833333
   Fe     0.250000      0.750000      0.833333
   Nb     0.416667      0.250000      0.000000
   Nb     0.416667      0.750000      0.000000
   Nb     0.416667      0.250000      0.166667
   Nb     0.416667      0.750000      0.166667
   Nb     0.416667      0.250000      0.333333
   Nb     0.416667      0.750000      0.333333
   Fe     0.416667      0.250000      0.500000
   Fe     0.416667      0.750000      0.500000
   Fe     0.416667      0.250000      0.666667
   Fe     0.416667      0.750000      0.666667
   Fe     0.416667      0.250000      0.833333
   Fe     0.416667      0.750000      0.833333
   Nb     0.583333      0.250000      0.000000
   Nb     0.583333      0.750000      0.000000
   Nb     0.583333      0.250000      0.166667
   Nb     0.583333      0.750000      0.166667
   Nb     0.583333      0.250000      0.333333
   Nb     0.583333      0.750000      0.333333
   Fe     0.583333      0.250000      0.500000
   Fe     0.583333      0.750000      0.500000
   Fe     0.583333      0.250000      0.666667
   Fe     0.583333      0.750000      0.666667
   Fe     0.583333      0.250000      0.833333
   Fe     0.583333      0.750000      0.833333
   Nb     0.750000      0.250000      0.000000
   Nb     0.750000      0.750000      0.000000
   Nb     0.750000      0.250000      0.166667
   Nb     0.750000      0.750000      0.166667
   Nb     0.750000      0.250000      0.333333
   Nb     0.750000      0.750000      0.333333
   Fe     0.750000      0.250000      0.500000
   Fe     0.750000      0.750000      0.500000
   Fe     0.750000      0.250000      0.666667
   Fe     0.750000      0.750000      0.666667
   Fe     0.750000      0.250000      0.833333
   Fe     0.750000      0.750000      0.833333
   Nb     0.916667      0.250000      0.000000
   Nb     0.916667      0.750000      0.000000
   Nb     0.916667      0.250000      0.166667
   Nb     0.916667      0.750000      0.166667
   Nb     0.916667      0.250000      0.333333
   Nb     0.916667      0.750000      0.333333
   Fe     0.916667      0.250000      0.500000
   Fe     0.916667      0.750000      0.500000
   Fe     0.916667      0.250000      0.666667
   Fe     0.916667      0.750000      0.666667
   Fe     0.916667      0.250000      0.833333
   Fe     0.916667      0.750000      0.833333
   O      0.000000      0.250000      0.000000
   O      0.000000      0.750000      0.000000
   O      0.000000      0.250000      0.166667
   O      0.000000      0.750000      0.166667
   O      0.000000      0.250000      0.333333
   O      0.000000      0.750000      0.333333
   O      0.000000      0.250000      0.500000
   O      0.000000      0.750000      0.500000
   O      0.000000      0.250000      0.666667
   O      0.000000      0.750000      0.666667
   O      0.000000      0.250000      0.833333
   O      0.000000      0.750000      0.833333
   O      0.166667      0.250000      0.000000
   O      0.166667      0.750000      0.000000
   O      0.166667      0.250000      0.166667
   O      0.166667      0.750000      0.166667
   O      0.166667      0.250000      0.333333
   O      0.166667      0.750000      0.333333
   O      0.166667      0.250000      0.500000
   O      0.166667      0.750000      0.500000
   O      0.166667      0.250000      0.666667
   O      0.166667      0.750000      0.666667
   O      0.166667      0.250000      0.833333
   O      0.166667      0.750000      0.833333
   O      0.333333      0.250000      0.000000
   O      0.333333      0.750000      0.000000
   O      0.333333      0.250000      0.166667
   O      0.333333      0.750000      0.166667
   O      0.333333      0.250000      0.333333
   O      0.333333      0.750000      0.333333
   O      0.333333      0.250000      0.500000
   O      0.333333      0.750000      0.500000
   O      0.333333      0.250000      0.666667
   O      0.333333      0.750000      0.666667
   O      0.333333      0.250000      0.833333
   O      0.333333      0.750000      0.833333
   O      0.500000      0.250000      0.000000
   O      0.500000      0.750000      0.000000
   O      0.500000      0.250000      0.166667
   O      0.500000      0.750000      0.166667
   O      0.500000      0.250000      0.333333
   O      0.500000      0.750000      0.333333
   O      0.500000      0.250000      0.500000
   O      0.500000      0.750000      0.500000
   O      0.500000      0.250000      0.666667
   O      0.500000      0.750000      0.666667
   O      0.500000      0.250000      0.833333
   O      0.500000      0.750000      0.833333
   O      0.666667      0.250000      0.000000
   O      0.666667      0.750000      0.000000
   O      0.666667      0.250000      0.166667
   O      0.666667      0.750000      0.166667
   O      0.666667      0.250000      0.333333
   O      0.666667      0.750000      0.333333
   O      0.666667      0.250000      0.500000
   O      0.666667      0.750000      0.500000
   O      0.666667      0.250000      0.666667
   O      0.666667      0.750000      0.666667
   O      0.666667      0.250000      0.833333
   O      0.666667      0.750000      0.833333
   O      0.833333      0.250000      0.000000
   O      0.833333      0.750000      0.000000
   O      0.833333      0.250000      0.166667
   O      0.833333      0.750000      0.166667
   O      0.833333      0.250000      0.333333
   O      0.833333      0.750000      0.333333
   O      0.833333      0.250000      0.500000
   O      0.833333      0.750000      0.500000
   O      0.833333      0.250000      0.666667
   O      0.833333      0.750000      0.666667
   O      0.833333      0.250000      0.833333
   O      0.833333      0.750000      0.833333
   O      0.000000      0.000000      0.083333
   O      0.000000      0.500000      0.083333
   O      0.000000      0.000000      0.250000
   O      0.000000      0.500000      0.250000
   O      0.000000      0.000000      0.416667
   O      0.000000      0.500000      0.416667
   O      0.000000      0.000000      0.583333
   O      0.000000      0.500000      0.583333
   O      0.000000      0.000000      0.750000
   O      0.000000      0.500000      0.750000
   O      0.000000      0.000000      0.916667
   O      0.000000      0.500000      0.916667
   O      0.166667      0.000000      0.083333
   O      0.166667      0.500000      0.083333
   O      0.166667      0.000000      0.250000
   O      0.166667      0.500000      0.250000
   O      0.166667      0.000000      0.416667
   O      0.166667      0.500000      0.416667
   O      0.166667      0.000000      0.583333
   O      0.166667      0.500000      0.583333
   O      0.166667      0.000000      0.750000
   O      0.166667      0.500000      0.750000
   O      0.166667      0.000000      0.916667
   O      0.166667      0.500000      0.916667
   O      0.333333      0.000000      0.083333
   O      0.333333      0.500000      0.083333
   O      0.333333      0.000000      0.250000
   O      0.333333      0.500000      0.250000
   O      0.333333      0.000000      0.416667
   O      0.333333      0.500000      0.416667
   O      0.333333      0.000000      0.583333
   O      0.333333      0.500000      0.583333
   O      0.333333      0.000000      0.750000
   O      0.333333      0.500000      0.750000
   O      0.333333      0.000000      0.916667
   O      0.333333      0.500000      0.916667
   O      0.500000      0.000000      0.083333
   O      0.500000      0.500000      0.083333
   O      0.500000      0.000000      0.250000
   O      0.500000      0.500000      0.250000
   O      0.500000      0.000000      0.416667
   O      0.500000      0.500000      0.416667
   O      0.500000      0.000000      0.583333
   O      0.500000      0.500000      0.583333
   O      0.500000      0.000000      0.750000
   O      0.500000      0.500000      0.750000
   O      0.500000      0.000000      0.916667
   O      0.500000      0.500000      0.916667
   O      0.666667      0.000000      0.083333
   O      0.666667      0.500000      0.083333
   O      0.666667      0.000000      0.250000
   O      0.666667      0.500000      0.250000
   O      0.666667      0.000000      0.416667
   O      0.666667      0.500000      0.416667
   O      0.666667      0.000000      0.583333
   O      0.666667      0.500000      0.583333
   O      0.666667      0.000000      0.750000
   O      0.666667      0.500000      0.750000
   O      0.666667      0.000000      0.916667
   O      0.666667      0.500000      0.916667
   O      0.833333      0.000000      0.083333
   O      0.833333      0.500000      0.083333
   O      0.833333      0.000000      0.250000
   O      0.833333      0.500000      0.250000
   O      0.833333      0.000000      0.416667
   O      0.833333      0.500000      0.416667
   O      0.833333      0.000000      0.583333
   O      0.833333      0.500000      0.583333
   O      0.833333      0.000000      0.750000
   O      0.833333      0.500000      0.750000
   O      0.833333      0.000000      0.916667
   O      0.833333      0.500000      0.916667
   O      0.000000      0.250000      0.083333
   O      0.000000      0.750000      0.083333
   O      0.000000      0.250000      0.250000
   O      0.000000      0.750000      0.250000
   O      0.000000      0.250000      0.416667
   O      0.000000      0.750000      0.416667
   O      0.000000      0.250000      0.583333
   O      0.000000      0.750000      0.583333
   O      0.000000      0.250000      0.750000
   O      0.000000      0.750000      0.750000
   O      0.000000      0.250000      0.916667
   O      0.000000      0.750000      0.916667
   O      0.166667      0.250000      0.083333
   O      0.166667      0.750000      0.083333
   O      0.166667      0.250000      0.250000
   O      0.166667      0.750000      0.250000
   O      0.166667      0.250000      0.416667
   O      0.166667      0.750000      0.416667
   O      0.166667      0.250000      0.583333
   O      0.166667      0.750000      0.583333
   O      0.166667      0.250000      0.750000
   O      0.166667      0.750000      0.750000
   O      0.166667      0.250000      0.916667
   O      0.166667      0.750000      0.916667
   O      0.333333      0.250000      0.083333
   O      0.333333      0.750000      0.083333
   O      0.333333      0.250000      0.250000
   O      0.333333      0.750000      0.250000
   O      0.333333      0.250000      0.416667
   O      0.333333      0.750000      0.416667
   O      0.333333      0.250000      0.583333
   O      0.333333      0.750000      0.583333
   O      0.333333      0.250000      0.750000
   O      0.333333      0.750000      0.750000
   O      0.333333      0.250000      0.916667
   O      0.333333      0.750000      0.916667
   O      0.500000      0.250000      0.083333
   O      0.500000      0.750000      0.083333
   O      0.500000      0.250000      0.250000
   O      0.500000      0.750000      0.250000
   O      0.500000      0.250000      0.416667
   O      0.500000      0.750000      0.416667
   O      0.500000      0.250000      0.583333
   O      0.500000      0.750000      0.583333
   O      0.500000      0.250000      0.750000
   O      0.500000      0.750000      0.750000
   O      0.500000      0.250000      0.916667
   O      0.500000      0.750000      0.916667
   O      0.666667      0.250000      0.083333
   O      0.666667      0.750000      0.083333
   O      0.666667      0.250000      0.250000
   O      0.666667      0.750000      0.250000
   O      0.666667      0.250000      0.416667
   O      0.666667      0.750000      0.416667
   O      0.666667      0.250000      0.583333
   O      0.666667      0.750000      0.583333
   O      0.666667      0.250000      0.750000
   O      0.666667      0.750000      0.750000
   O      0.666667      0.250000      0.916667
   O      0.666667      0.750000      0.916667
   O      0.833333      0.250000      0.083333
   O      0.833333      0.750000      0.083333
   O      0.833333      0.250000      0.250000
   O      0.833333      0.750000      0.250000
   O      0.833333      0.250000      0.416667
   O      0.833333      0.750000      0.416667
   O      0.833333      0.250000      0.583333
   O      0.833333      0.750000      0.583333
   O      0.833333      0.250000      0.750000
   O      0.833333      0.750000      0.750000
   O      0.833333      0.250000      0.916667
   O      0.833333      0.750000      0.916667
species 5
K  core  1.0
La core  3.0
Fe core  3.0
Nb core  5.0
O  core -2.0
output cif cell3.cif
