single
title
Quadruple Perovskite
end
cell
15.8000  22.344574  5.586143   60.000   45.000   90.000
frac
   K    0.000000      0.000000      0.000000
   K    0.000000      0.250000      0.000000
   K    0.000000      0.500000      0.000000
   K    0.000000      0.750000      0.000000
   K    0.250000      0.000000      0.000000
   K    0.250000      0.250000      0.000000
   K    0.250000      0.500000      0.000000
   K    0.250000      0.750000      0.000000
   La    0.500000      0.000000      0.000000
   La    0.500000      0.250000      0.000000
   La    0.500000      0.500000      0.000000
   La    0.500000      0.750000      0.000000
   La    0.750000      0.000000      0.000000
   La    0.750000      0.250000      0.000000
   La    0.750000      0.500000      0.000000
   La    0.750000      0.750000      0.000000
   Nb   0.125000      0.125000      0.000000
   Nb   0.125000      0.375000      0.000000
   Fe   0.125000      0.625000      0.000000
   Fe   0.125000      0.875000      0.000000
   Nb   0.375000      0.125000      0.000000
   Nb   0.375000      0.375000      0.000000
   Fe   0.375000      0.625000      0.000000
   Fe   0.375000      0.875000      0.000000
   Nb   0.625000      0.125000      0.000000
   Nb   0.625000      0.375000      0.000000
   Fe   0.625000      0.625000      0.000000
   Fe   0.625000      0.875000      0.000000
   Nb   0.875000      0.125000      0.000000
   Nb   0.875000      0.375000      0.000000
   Fe   0.875000      0.625000      0.000000
   Fe   0.875000      0.875000      0.000000
   O    0.000000      0.125000      0.000000
   O    0.000000      0.375000      0.000000
   O    0.000000      0.625000      0.000000
   O    0.000000      0.875000      0.000000
   O    0.250000      0.125000      0.000000
   O    0.250000      0.375000      0.000000
   O    0.250000      0.625000      0.000000
   O    0.250000      0.875000      0.000000
   O    0.500000      0.125000      0.000000
   O    0.500000      0.375000      0.000000
   O    0.500000      0.625000      0.000000
   O    0.500000      0.875000      0.000000
   O    0.750000      0.125000      0.000000
   O    0.750000      0.375000      0.000000
   O    0.750000      0.625000      0.000000
   O    0.750000      0.875000      0.000000
   O    0.000000      0.000000      0.500000
   O    0.000000      0.250000      0.500000
   O    0.000000      0.500000      0.500000
   O    0.000000      0.750000      0.500000
   O    0.250000      0.000000      0.500000
   O    0.250000      0.250000      0.500000
   O    0.250000      0.500000      0.500000
   O    0.250000      0.750000      0.500000
   O    0.500000      0.000000      0.500000
   O    0.500000      0.250000      0.500000
   O    0.500000      0.500000      0.500000
   O    0.500000      0.750000      0.500000
   O    0.750000      0.000000      0.500000
   O    0.750000      0.250000      0.500000
   O    0.750000      0.500000      0.500000
   O    0.750000      0.750000      0.500000
   O    0.000000      0.125000      0.500000
   O    0.000000      0.375000      0.500000
   O    0.000000      0.625000      0.500000
   O    0.000000      0.875000      0.500000
   O    0.250000      0.125000      0.500000
   O    0.250000      0.375000      0.500000
   O    0.250000      0.625000      0.500000
   O    0.250000      0.875000      0.500000
   O    0.500000      0.125000      0.500000
   O    0.500000      0.375000      0.500000
   O    0.500000      0.625000      0.500000
   O    0.500000      0.875000      0.500000
   O    0.750000      0.125000      0.500000
   O    0.750000      0.375000      0.500000
   O    0.750000      0.625000      0.500000
   O    0.750000      0.875000      0.500000
species 5
K  core  1.0
La core  3.0
Fe core  3.0
Nb core  5.0
O  core -2.0
output cif cell2.cif
