single
title
Quadruple Perovskite
end
vectors
0.00000 -15.80000 15.80000 
3.95000 0.00000 0.00000 
0.00000 3.95000 3.95000 
frac
K  c 0.00000000 0.00000000 0.00000000 
K  c 0.12500000 0.00000000 0.50000000 
K  c 0.25000000 0.00000000 0.00000000 
K  c 0.37500000 0.00000000 0.50000000 
La c 0.50000000 0.00000000 0.00000000 
La c 0.62500000 0.00000000 0.50000000 
La c 0.75000000 0.00000000 0.00000000 
La c 0.87500000 0.00000000 0.50000000 
Nb c 0.00000000 0.50000000 0.50000000 
Nb c 0.12500000 0.50000000 0.00000000 
Nb c 0.25000000 0.50000000 0.50000000 
Nb c 0.37500000 0.50000000 0.00000000 
Fe c 0.50000000 0.50000000 0.50000000 
Fe c 0.62500000 0.50000000 0.00000000 
Fe c 0.75000000 0.50000000 0.50000000 
Fe c 0.87500000 0.50000000 0.00000000 
O  c 0.93750000 0.50000000 0.25000000 
O  c 0.06250000 0.50000000 0.25000000 
O  c 0.00000000 0.00000000 0.50000000 
O  c 0.06250000 0.50000000 0.75000000 
O  c 0.18750000 0.50000000 0.75000000 
O  c 0.12500000 0.00000000 0.00000000 
O  c 0.18750000 0.50000000 0.25000000 
O  c 0.31250000 0.50000000 0.25000000 
O  c 0.25000000 0.00000000 0.50000000 
O  c 0.31250000 0.50000000 0.75000000 
O  c 0.43750000 0.50000000 0.75000000 
O  c 0.37500000 0.00000000 0.00000000 
O  c 0.43750000 0.50000000 0.25000000 
O  c 0.56250000 0.50000000 0.25000000 
O  c 0.50000000 0.00000000 0.50000000 
O  c 0.56250000 0.50000000 0.75000000 
O  c 0.68750000 0.50000000 0.75000000 
O  c 0.62500000 0.00000000 0.00000000 
O  c 0.68750000 0.50000000 0.25000000 
O  c 0.81250000 0.50000000 0.25000000 
O  c 0.75000000 0.00000000 0.50000000 
O  c 0.81250000 0.50000000 0.75000000 
O  c 0.93750000 0.50000000 0.75000000 
O  c 0.87500000 0.00000000 0.00000000 
species 5
K  core  1.0
La core  3.0
Fe core  3.0
Nb core  5.0
O  core -2.0
output cif output.cif
