single
title
Quadruple Perovskite
end
vectors
0.00000 -19.75000 19.75000 
3.95000 0.00000 0.00000 
0.00000 3.95000 3.95000 
frac
Sr  c 0.00000000 0.00000000 0.00000000 
Sr  c 0.10000000 0.00000000 0.50000000 
Sr  c 0.20000000 0.00000000 0.00000000 
Sr  c 0.30000000 0.00000000 0.50000000 
Sr  c 0.40000000 0.00000000 0.00000000 
La c 0.50000000 0.00000000 0.50000000 
La c 0.60000000 0.00000000 0.00000000 
La c 0.70000000 0.00000000 0.50000000 
La c 0.80000000 0.00000000 0.00000000 
La c 0.90000000 0.00000000 0.50000000 
Ti c 0.00000000 0.50000000 0.50000000 
Ti c 0.10000000 0.50000000 0.00000000 
Ti c 0.20000000 0.50000000 0.50000000 
Ti c 0.30000000 0.50000000 0.00000000 
Ti c 0.40000000 0.50000000 0.50000000 
Fe c 0.50000000 0.50000000 0.00000000 
Fe c 0.60000000 0.50000000 0.50000000 
Fe c 0.70000000 0.50000000 0.00000000 
Fe c 0.80000000 0.50000000 0.50000000 
Fe c 0.90000000 0.50000000 0.00000000 
O  c 0.95000000 0.50000000 0.25000000 
O  c 0.05000000 0.50000000 0.25000000 
O  c 0.00000000 0.00000000 0.50000000 
O  c 0.05000000 0.50000000 0.75000000 
O  c 0.15000000 0.50000000 0.75000000 
O  c 0.10000000 0.00000000 0.00000000 
O  c 0.15000000 0.50000000 0.25000000 
O  c 0.25000000 0.50000000 0.25000000 
O  c 0.20000000 0.00000000 0.50000000 
O  c 0.25000000 0.50000000 0.75000000 
O  c 0.35000000 0.50000000 0.75000000 
O  c 0.30000000 0.00000000 0.00000000 
O  c 0.35000000 0.50000000 0.25000000 
O  c 0.45000000 0.50000000 0.25000000 
O  c 0.40000000 0.00000000 0.50000000 
O  c 0.45000000 0.50000000 0.75000000 
O  c 0.55000000 0.50000000 0.75000000 
O  c 0.50000000 0.00000000 0.00000000 
O  c 0.55000000 0.50000000 0.25000000 
O  c 0.65000000 0.50000000 0.25000000 
O  c 0.60000000 0.00000000 0.50000000 
O  c 0.65000000 0.50000000 0.75000000 
O  c 0.75000000 0.50000000 0.75000000 
O  c 0.70000000 0.00000000 0.00000000 
O  c 0.75000000 0.50000000 0.25000000 
O  c 0.85000000 0.50000000 0.25000000 
O  c 0.80000000 0.00000000 0.50000000 
O  c 0.85000000 0.50000000 0.75000000 
O  c 0.95000000 0.50000000 0.75000000 
O  c 0.90000000 0.00000000 0.00000000 
species 5
Sr  core  2.0
La core  3.0
Fe core  3.0
Ti core  4.0
O  core -2.0
output cif output.cif
