single
title
Quadruple Perovskite
end
vectors
0.00000 -39.50000 39.50000 
3.95000 0.00000 0.00000 
0.00000 3.95000 3.95000 
frac
Sr  c 0.00000000 0.00000000 0.00000000 
Sr  c 0.05000000 0.00000000 0.50000000 
Sr  c 0.10000000 0.00000000 0.00000000 
Sr  c 0.15000000 0.00000000 0.50000000 
Sr  c 0.20000000 0.00000000 0.00000000 
Sr  c 0.25000000 0.00000000 0.50000000 
Sr  c 0.30000000 0.00000000 0.00000000 
Sr  c 0.35000000 0.00000000 0.50000000 
Sr  c 0.40000000 0.00000000 0.00000000 
Sr  c 0.45000000 0.00000000 0.50000000 
La c 0.50000000 0.00000000 0.00000000 
La c 0.55000000 0.00000000 0.50000000 
La c 0.60000000 0.00000000 0.00000000 
La c 0.65000000 0.00000000 0.50000000 
La c 0.70000000 0.00000000 0.00000000 
La c 0.75000000 0.00000000 0.50000000 
La c 0.80000000 0.00000000 0.00000000 
La c 0.85000000 0.00000000 0.50000000 
La c 0.90000000 0.00000000 0.00000000 
La c 0.95000000 0.00000000 0.50000000 
Ti c 0.00000000 0.50000000 0.50000000 
Ti c 0.05000000 0.50000000 0.00000000 
Ti c 0.10000000 0.50000000 0.50000000 
Ti c 0.15000000 0.50000000 0.00000000 
Ti c 0.20000000 0.50000000 0.50000000 
Ti c 0.25000000 0.50000000 0.00000000 
Ti c 0.30000000 0.50000000 0.50000000 
Ti c 0.35000000 0.50000000 0.00000000 
Ti c 0.40000000 0.50000000 0.50000000 
Ti c 0.45000000 0.50000000 0.00000000 
Fe c 0.50000000 0.50000000 0.50000000 
Fe c 0.55000000 0.50000000 0.00000000 
Fe c 0.60000000 0.50000000 0.50000000 
Fe c 0.65000000 0.50000000 0.00000000 
Fe c 0.70000000 0.50000000 0.50000000 
Fe c 0.75000000 0.50000000 0.00000000 
Fe c 0.80000000 0.50000000 0.50000000 
Fe c 0.85000000 0.50000000 0.00000000 
Fe c 0.90000000 0.50000000 0.50000000 
Fe c 0.95000000 0.50000000 0.00000000 
O  c 0.97500000 0.50000000 0.25000000 
O  c 0.02500000 0.50000000 0.25000000 
O  c 0.00000000 0.00000000 0.50000000 
O  c 0.02500000 0.50000000 0.75000000 
O  c 0.07500000 0.50000000 0.75000000 
O  c 0.05000000 0.00000000 0.00000000 
O  c 0.07500000 0.50000000 0.25000000 
O  c 0.12500000 0.50000000 0.25000000 
O  c 0.10000000 0.00000000 0.50000000 
O  c 0.12500000 0.50000000 0.75000000 
O  c 0.17500000 0.50000000 0.75000000 
O  c 0.15000000 0.00000000 0.00000000 
O  c 0.17500000 0.50000000 0.25000000 
O  c 0.22500000 0.50000000 0.25000000 
O  c 0.20000000 0.00000000 0.50000000 
O  c 0.22500000 0.50000000 0.75000000 
O  c 0.27500000 0.50000000 0.75000000 
O  c 0.25000000 0.00000000 0.00000000 
O  c 0.27500000 0.50000000 0.25000000 
O  c 0.32500000 0.50000000 0.25000000 
O  c 0.30000000 0.00000000 0.50000000 
O  c 0.32500000 0.50000000 0.75000000 
O  c 0.37500000 0.50000000 0.75000000 
O  c 0.35000000 0.00000000 0.00000000 
O  c 0.37500000 0.50000000 0.25000000 
O  c 0.42500000 0.50000000 0.25000000 
O  c 0.40000000 0.00000000 0.50000000 
O  c 0.42500000 0.50000000 0.75000000 
O  c 0.47500000 0.50000000 0.75000000 
O  c 0.45000000 0.00000000 0.00000000 
O  c 0.47500000 0.50000000 0.25000000 
O  c 0.52500000 0.50000000 0.25000000 
O  c 0.50000000 0.00000000 0.50000000 
O  c 0.52500000 0.50000000 0.75000000 
O  c 0.57500000 0.50000000 0.75000000 
O  c 0.55000000 0.00000000 0.00000000 
O  c 0.57500000 0.50000000 0.25000000 
O  c 0.62500000 0.50000000 0.25000000 
O  c 0.60000000 0.00000000 0.50000000 
O  c 0.62500000 0.50000000 0.75000000 
O  c 0.67500000 0.50000000 0.75000000 
O  c 0.65000000 0.00000000 0.00000000 
O  c 0.67500000 0.50000000 0.25000000 
O  c 0.72500000 0.50000000 0.25000000 
O  c 0.70000000 0.00000000 0.50000000 
O  c 0.72500000 0.50000000 0.75000000 
O  c 0.77500000 0.50000000 0.75000000 
O  c 0.75000000 0.00000000 0.00000000 
O  c 0.77500000 0.50000000 0.25000000 
O  c 0.82500000 0.50000000 0.25000000 
O  c 0.80000000 0.00000000 0.50000000 
O  c 0.82500000 0.50000000 0.75000000 
O  c 0.87500000 0.50000000 0.75000000 
O  c 0.85000000 0.00000000 0.00000000 
O  c 0.87500000 0.50000000 0.25000000 
O  c 0.92500000 0.50000000 0.25000000 
O  c 0.90000000 0.00000000 0.50000000 
O  c 0.92500000 0.50000000 0.75000000 
O  c 0.97500000 0.50000000 0.75000000 
O  c 0.95000000 0.00000000 0.00000000 
species 5
Sr  core  2.0
La core  3.0
Fe core  3.0
Ti core  4.0
O  core -2.0
output cif output.cif
