single
title
Quadruple Perovskite
end
vectors
0.00000 -31.60000 31.60000 
3.95000 0.00000 0.00000 
0.00000 3.95000 3.95000 
frac
Sr  c 0.00000000 0.00000000 0.00000000 
Sr  c 0.06250000 0.00000000 0.50000000 
Sr  c 0.12500000 0.00000000 0.00000000 
Sr  c 0.18750000 0.00000000 0.50000000 
Sr  c 0.25000000 0.00000000 0.00000000 
Sr  c 0.31250000 0.00000000 0.50000000 
Sr  c 0.37500000 0.00000000 0.00000000 
Sr  c 0.43750000 0.00000000 0.50000000 
La c 0.50000000 0.00000000 0.00000000 
La c 0.56250000 0.00000000 0.50000000 
La c 0.62500000 0.00000000 0.00000000 
La c 0.68750000 0.00000000 0.50000000 
La c 0.75000000 0.00000000 0.00000000 
La c 0.81250000 0.00000000 0.50000000 
La c 0.87500000 0.00000000 0.00000000 
La c 0.93750000 0.00000000 0.50000000 
Ti c 0.00000000 0.50000000 0.50000000 
Ti c 0.06250000 0.50000000 0.00000000 
Ti c 0.12500000 0.50000000 0.50000000 
Ti c 0.18750000 0.50000000 0.00000000 
Ti c 0.25000000 0.50000000 0.50000000 
Ti c 0.31250000 0.50000000 0.00000000 
Ti c 0.37500000 0.50000000 0.50000000 
Ti c 0.43750000 0.50000000 0.00000000 
Fe c 0.50000000 0.50000000 0.50000000 
Fe c 0.56250000 0.50000000 0.00000000 
Fe c 0.62500000 0.50000000 0.50000000 
Fe c 0.68750000 0.50000000 0.00000000 
Fe c 0.75000000 0.50000000 0.50000000 
Fe c 0.81250000 0.50000000 0.00000000 
Fe c 0.87500000 0.50000000 0.50000000 
Fe c 0.93750000 0.50000000 0.00000000 
O  c 0.96875000 0.50000000 0.25000000 
O  c 0.03125000 0.50000000 0.25000000 
O  c 0.00000000 0.00000000 0.50000000 
O  c 0.03125000 0.50000000 0.75000000 
O  c 0.09375000 0.50000000 0.75000000 
O  c 0.06250000 0.00000000 0.00000000 
O  c 0.09375000 0.50000000 0.25000000 
O  c 0.15625000 0.50000000 0.25000000 
O  c 0.12500000 0.00000000 0.50000000 
O  c 0.15625000 0.50000000 0.75000000 
O  c 0.21875000 0.50000000 0.75000000 
O  c 0.18750000 0.00000000 0.00000000 
O  c 0.21875000 0.50000000 0.25000000 
O  c 0.28125000 0.50000000 0.25000000 
O  c 0.25000000 0.00000000 0.50000000 
O  c 0.28125000 0.50000000 0.75000000 
O  c 0.34375000 0.50000000 0.75000000 
O  c 0.31250000 0.00000000 0.00000000 
O  c 0.34375000 0.50000000 0.25000000 
O  c 0.40625000 0.50000000 0.25000000 
O  c 0.37500000 0.00000000 0.50000000 
O  c 0.40625000 0.50000000 0.75000000 
O  c 0.46875000 0.50000000 0.75000000 
O  c 0.43750000 0.00000000 0.00000000 
O  c 0.46875000 0.50000000 0.25000000 
O  c 0.53125000 0.50000000 0.25000000 
O  c 0.50000000 0.00000000 0.50000000 
O  c 0.53125000 0.50000000 0.75000000 
O  c 0.59375000 0.50000000 0.75000000 
O  c 0.56250000 0.00000000 0.00000000 
O  c 0.59375000 0.50000000 0.25000000 
O  c 0.65625000 0.50000000 0.25000000 
O  c 0.62500000 0.00000000 0.50000000 
O  c 0.65625000 0.50000000 0.75000000 
O  c 0.71875000 0.50000000 0.75000000 
O  c 0.68750000 0.00000000 0.00000000 
O  c 0.71875000 0.50000000 0.25000000 
O  c 0.78125000 0.50000000 0.25000000 
O  c 0.75000000 0.00000000 0.50000000 
O  c 0.78125000 0.50000000 0.75000000 
O  c 0.84375000 0.50000000 0.75000000 
O  c 0.81250000 0.00000000 0.00000000 
O  c 0.84375000 0.50000000 0.25000000 
O  c 0.90625000 0.50000000 0.25000000 
O  c 0.87500000 0.00000000 0.50000000 
O  c 0.90625000 0.50000000 0.75000000 
O  c 0.96875000 0.50000000 0.75000000 
O  c 0.93750000 0.00000000 0.00000000 
species 5
Sr  core  2.0
La core  3.0
Fe core  3.0
Ti core  4.0
O  core -2.0
output cif output.cif
