single
title
Quadruple Perovskite
end
vectors
0.00000 -27.65000 27.65000 
3.95000 0.00000 0.00000 
0.00000 3.95000 3.95000 
frac
K  c 0.00000000 0.00000000 0.00000000 
K  c 0.07142857 0.00000000 0.50000000 
K  c 0.14285714 0.00000000 0.00000000 
K  c 0.21428571 0.00000000 0.50000000 
K  c 0.28571429 0.00000000 0.00000000 
K  c 0.35714286 0.00000000 0.50000000 
K  c 0.42857143 0.00000000 0.00000000 
Sr c 0.50000000 0.00000000 0.50000000 
Sr c 0.57142857 0.00000000 0.00000000 
Sr c 0.64285714 0.00000000 0.50000000 
Sr c 0.71428571 0.00000000 -0.00000000 
Sr c 0.78571429 0.00000000 0.50000000 
Sr c 0.85714286 0.00000000 0.00000000 
Sr c 0.92857143 0.00000000 0.50000000 
Nb c 0.00000000 0.50000000 0.50000000 
Nb c 0.07142857 0.50000000 0.00000000 
Nb c 0.14285714 0.50000000 0.50000000 
Nb c 0.21428571 0.50000000 0.00000000 
Nb c 0.28571429 0.50000000 0.50000000 
Nb c 0.35714286 0.50000000 -0.00000000 
Nb c 0.42857143 0.50000000 0.50000000 
Ti c 0.50000000 0.50000000 0.00000000 
Ti c 0.57142857 0.50000000 0.50000000 
Ti c 0.64285714 0.50000000 0.00000000 
Ti c 0.71428571 0.50000000 0.50000000 
Ti c 0.78571429 0.50000000 0.00000000 
Ti c 0.85714286 0.50000000 0.50000000 
Ti c 0.92857143 0.50000000 -0.00000000 
O  c 0.96428571 0.50000000 0.25000000 
O  c 0.03571429 0.50000000 0.25000000 
O  c 0.00000000 0.00000000 0.50000000 
O  c 0.03571429 0.50000000 0.75000000 
O  c 0.10714286 0.50000000 0.75000000 
O  c 0.07142857 0.00000000 0.00000000 
O  c 0.10714286 0.50000000 0.25000000 
O  c 0.17857143 0.50000000 0.25000000 
O  c 0.14285714 0.00000000 0.50000000 
O  c 0.17857143 0.50000000 0.75000000 
O  c 0.25000000 0.50000000 0.75000000 
O  c 0.21428571 0.00000000 0.00000000 
O  c 0.25000000 0.50000000 0.25000000 
O  c 0.32142857 0.50000000 0.25000000 
O  c 0.28571429 0.00000000 0.50000000 
O  c 0.32142857 0.50000000 0.75000000 
O  c 0.39285714 0.50000000 0.75000000 
O  c 0.35714286 0.00000000 -0.00000000 
O  c 0.39285714 0.50000000 0.25000000 
O  c 0.46428571 0.50000000 0.25000000 
O  c 0.42857143 0.00000000 0.50000000 
O  c 0.46428571 0.50000000 0.75000000 
O  c 0.53571429 0.50000000 0.75000000 
O  c 0.50000000 0.00000000 0.00000000 
O  c 0.53571429 0.50000000 0.25000000 
O  c 0.60714286 0.50000000 0.25000000 
O  c 0.57142857 0.00000000 0.50000000 
O  c 0.60714286 0.50000000 0.75000000 
O  c 0.67857143 0.50000000 0.75000000 
O  c 0.64285714 0.00000000 0.00000000 
O  c 0.67857143 0.50000000 0.25000000 
O  c 0.75000000 0.50000000 0.25000000 
O  c 0.71428571 0.00000000 0.50000000 
O  c 0.75000000 0.50000000 0.75000000 
O  c 0.82142857 0.50000000 0.75000000 
O  c 0.78571429 0.00000000 0.00000000 
O  c 0.82142857 0.50000000 0.25000000 
O  c 0.89285714 0.50000000 0.25000000 
O  c 0.85714286 0.00000000 0.50000000 
O  c 0.89285714 0.50000000 0.75000000 
O  c 0.96428571 0.50000000 0.75000000 
O  c 0.92857143 0.00000000 -0.00000000 
species 5
K  core  1.0
Sr core  2.0
Ti core  4.0
Nb core  5.0
O  core -2.0
output cif output.cif
