single
title
Quadruple Perovskite
end
vectors
0.00000 -35.55000 35.55000 
3.95000 0.00000 0.00000 
0.00000 3.95000 3.95000 
frac
K  c 0.00000000 0.00000000 0.00000000 
K  c 0.05555556 0.00000000 0.50000000 
K  c 0.11111111 0.00000000 0.00000000 
K  c 0.16666667 0.00000000 0.50000000 
K  c 0.22222222 0.00000000 0.00000000 
K  c 0.27777778 0.00000000 0.50000000 
K  c 0.33333333 0.00000000 0.00000000 
K  c 0.38888889 0.00000000 0.50000000 
K  c 0.44444444 0.00000000 0.00000000 
Sr c 0.50000000 0.00000000 0.50000000 
Sr c 0.55555556 0.00000000 0.00000000 
Sr c 0.61111111 0.00000000 0.50000000 
Sr c 0.66666667 0.00000000 0.00000000 
Sr c 0.72222222 0.00000000 0.50000000 
Sr c 0.77777778 0.00000000 -0.00000000 
Sr c 0.83333333 0.00000000 0.50000000 
Sr c 0.88888889 0.00000000 0.00000000 
Sr c 0.94444444 0.00000000 0.50000000 
Nb c 0.00000000 0.50000000 0.50000000 
Nb c 0.05555556 0.50000000 0.00000000 
Nb c 0.11111111 0.50000000 0.50000000 
Nb c 0.16666667 0.50000000 0.00000000 
Nb c 0.22222222 0.50000000 0.50000000 
Nb c 0.27777778 0.50000000 0.00000000 
Nb c 0.33333333 0.50000000 0.50000000 
Nb c 0.38888889 0.50000000 -0.00000000 
Nb c 0.44444444 0.50000000 0.50000000 
Ti c 0.50000000 0.50000000 0.00000000 
Ti c 0.55555556 0.50000000 0.50000000 
Ti c 0.61111111 0.50000000 -0.00000000 
Ti c 0.66666667 0.50000000 0.50000000 
Ti c 0.72222222 0.50000000 0.00000000 
Ti c 0.77777778 0.50000000 0.50000000 
Ti c 0.83333333 0.50000000 -0.00000000 
Ti c 0.88888889 0.50000000 0.50000000 
Ti c 0.94444444 0.50000000 0.00000000 
O  c 0.97222222 0.50000000 0.25000000 
O  c 0.02777778 0.50000000 0.25000000 
O  c 0.00000000 0.00000000 0.50000000 
O  c 0.02777778 0.50000000 0.75000000 
O  c 0.08333333 0.50000000 0.75000000 
O  c 0.05555556 0.00000000 0.00000000 
O  c 0.08333333 0.50000000 0.25000000 
O  c 0.13888889 0.50000000 0.25000000 
O  c 0.11111111 0.00000000 0.50000000 
O  c 0.13888889 0.50000000 0.75000000 
O  c 0.19444444 0.50000000 0.75000000 
O  c 0.16666667 0.00000000 0.00000000 
O  c 0.19444444 0.50000000 0.25000000 
O  c 0.25000000 0.50000000 0.25000000 
O  c 0.22222222 0.00000000 0.50000000 
O  c 0.25000000 0.50000000 0.75000000 
O  c 0.30555556 0.50000000 0.75000000 
O  c 0.27777778 0.00000000 0.00000000 
O  c 0.30555556 0.50000000 0.25000000 
O  c 0.36111111 0.50000000 0.25000000 
O  c 0.33333333 0.00000000 0.50000000 
O  c 0.36111111 0.50000000 0.75000000 
O  c 0.41666667 0.50000000 0.75000000 
O  c 0.38888889 0.00000000 -0.00000000 
O  c 0.41666667 0.50000000 0.25000000 
O  c 0.47222222 0.50000000 0.25000000 
O  c 0.44444444 0.00000000 0.50000000 
O  c 0.47222222 0.50000000 0.75000000 
O  c 0.52777778 0.50000000 0.75000000 
O  c 0.50000000 0.00000000 0.00000000 
O  c 0.52777778 0.50000000 0.25000000 
O  c 0.58333333 0.50000000 0.25000000 
O  c 0.55555556 0.00000000 0.50000000 
O  c 0.58333333 0.50000000 0.75000000 
O  c 0.63888889 0.50000000 0.75000000 
O  c 0.61111111 0.00000000 -0.00000000 
O  c 0.63888889 0.50000000 0.25000000 
O  c 0.69444444 0.50000000 0.25000000 
O  c 0.66666667 0.00000000 0.50000000 
O  c 0.69444444 0.50000000 0.75000000 
O  c 0.75000000 0.50000000 0.75000000 
O  c 0.72222222 0.00000000 0.00000000 
O  c 0.75000000 0.50000000 0.25000000 
O  c 0.80555556 0.50000000 0.25000000 
O  c 0.77777778 0.00000000 0.50000000 
O  c 0.80555556 0.50000000 0.75000000 
O  c 0.86111111 0.50000000 0.75000000 
O  c 0.83333333 0.00000000 -0.00000000 
O  c 0.86111111 0.50000000 0.25000000 
O  c 0.91666667 0.50000000 0.25000000 
O  c 0.88888889 0.00000000 0.50000000 
O  c 0.91666667 0.50000000 0.75000000 
O  c 0.97222222 0.50000000 0.75000000 
O  c 0.94444444 0.00000000 0.00000000 
species 5
K  core  1.0
Sr core  2.0
Ti core  4.0
Nb core  5.0
O  core -2.0
output cif output.cif
