single
title
Perovskite alloy
end
cell
8.0000 8.0000 8.0000 90.00 90.00 90.00
frac
La c	0.000000    0.000000    0.000000
La c	0.000000    0.000000    0.500000
La c	0.000000    0.500000    0.000000
K c	0.000000    0.500000    0.500000
La c	0.500000    0.000000    0.000000
K c	0.500000    0.000000    0.500000
K c	0.500000    0.500000    0.000000
K c	0.500000    0.500000    0.500000
Fe c	0.250000    0.250000    0.250000
Nb c	0.250000    0.250000    0.750000
Nb c	0.250000    0.750000    0.250000
Fe c	0.250000    0.750000    0.750000
Nb c	0.750000    0.250000    0.250000
Fe c	0.750000    0.250000    0.750000
Fe c	0.750000    0.750000    0.250000
Nb c	0.750000    0.750000    0.750000
O c	0.250000    0.250000    0.000000
O c	0.250000    0.250000    0.500000
O c	0.250000    0.750000    0.000000
O c	0.250000    0.750000    0.500000
O c	0.750000    0.250000    0.000000
O c	0.750000    0.250000    0.500000
O c	0.750000    0.750000    0.000000
O c	0.750000    0.750000    0.500000
O c	0.000000    0.250000    0.250000
O c	0.000000    0.250000    0.750000
O c	0.000000    0.750000    0.250000
O c	0.000000    0.750000    0.750000
O c	0.500000    0.250000    0.250000
O c	0.500000    0.250000    0.750000
O c	0.500000    0.750000    0.250000
O c	0.500000    0.750000    0.750000
O c	0.250000    0.000000    0.250000
O c	0.250000    0.000000    0.750000
O c	0.250000    0.500000    0.250000
O c	0.250000    0.500000    0.750000
O c	0.750000    0.000000    0.250000
O c	0.750000    0.000000    0.750000
O c	0.750000    0.500000    0.250000
O c	0.750000    0.500000    0.750000
species 7 
K  core  1.0
Sr core  2.0
La core  3.0
Fe core  3.0
Ti core  4.0
Nb core  5.0
O  core -2.0 
