single
title
Quadruple Perovskite
end
cell
7.90000 5.586143 11.172287 60.0 45.0 90.0
frac
   Sr      0.000000      0.000000      0.000000
   Sr      0.000000      0.000000      0.500000
   La      0.500000      0.000000      0.000000
   La      0.500000      0.000000      0.500000
   Ti     0.250000      0.500000      0.000000
   Fe     0.250000      0.500000      0.500000
   Ti     0.750000      0.500000      0.000000
   Fe     0.750000      0.500000      0.500000
   O      0.000000      0.500000      0.000000
   O      0.000000      0.500000      0.500000
   O      0.500000      0.500000      0.000000
   O      0.500000      0.500000      0.500000
   O      0.000000      0.000000      0.250000
   O      0.000000      0.000000      0.750000
   O      0.500000      0.000000      0.250000
   O      0.500000      0.000000      0.750000
   O      0.000000      0.500000      0.250000
   O      0.000000      0.500000      0.750000
   O      0.500000      0.500000      0.250000
   O      0.500000      0.500000      0.750000
species 5
Sr  core  2.0
La core  3.0
Fe core  3.0
Ti core  4.0
O  core -2.0
output cif cell1.cif
