single
title
Quadruple Perovskite
end
cell
7.90000 5.586143 11.172287 60.0 45.0 90.0
frac
   K      0.000000      0.000000      0.000000
   K      0.000000      0.000000      0.500000
   Sr      0.500000      0.000000      0.000000
   Sr      0.500000      0.000000      0.500000
   Nb     0.250000      0.500000      0.000000
   Ti     0.250000      0.500000      0.500000
   Nb     0.750000      0.500000      0.000000
   Ti     0.750000      0.500000      0.500000
   O      0.000000      0.500000      0.000000
   O      0.000000      0.500000      0.500000
   O      0.500000      0.500000      0.000000
   O      0.500000      0.500000      0.500000
   O      0.000000      0.000000      0.250000
   O      0.000000      0.000000      0.750000
   O      0.500000      0.000000      0.250000
   O      0.500000      0.000000      0.750000
   O      0.000000      0.500000      0.250000
   O      0.000000      0.500000      0.750000
   O      0.500000      0.500000      0.250000
   O      0.500000      0.500000      0.750000
species 5
K  core  1.0
Sr core  2.0
Ti core  4.0
Nb core  5.0
O  core -2.0
output cif cell1.cif
