single
title
Quadruple Perovskite
end
cell
15.800  5.586143  22.344574   60.000   45.000   90.000
frac
   K      0.000000      0.000000      0.000000
   K      0.000000      0.000000      0.250000
   K      0.000000      0.000000      0.500000
   K      0.000000      0.000000      0.750000
   K      0.250000      0.000000      0.000000
   K      0.250000      0.000000      0.250000
   K      0.250000      0.000000      0.500000
   K      0.250000      0.000000      0.750000
   Sr      0.500000      0.000000      0.000000
   Sr      0.500000      0.000000      0.250000
   Sr      0.500000      0.000000      0.500000
   Sr      0.500000      0.000000      0.750000
   Sr      0.750000      0.000000      0.000000
   Sr      0.750000      0.000000      0.250000
   Sr      0.750000      0.000000      0.500000
   Sr      0.750000      0.000000      0.750000
   Nb     0.125000      0.500000      0.000000
   Nb     0.125000      0.500000      0.250000
   Ti     0.125000      0.500000      0.500000
   Ti     0.125000      0.500000      0.750000
   Nb     0.375000      0.500000      0.000000
   Nb     0.375000      0.500000      0.250000
   Ti     0.375000      0.500000      0.500000
   Ti     0.375000      0.500000      0.750000
   Nb     0.625000      0.500000      0.000000
   Nb     0.625000      0.500000      0.250000
   Ti     0.625000      0.500000      0.500000
   Ti     0.625000      0.500000      0.750000
   Nb     0.875000      0.500000      0.000000
   Nb     0.875000      0.500000      0.250000
   Ti     0.875000      0.500000      0.500000
   Ti     0.875000      0.500000      0.750000
   O      0.000000      0.500000      0.000000
   O      0.000000      0.500000      0.250000
   O      0.000000      0.500000      0.500000
   O      0.000000      0.500000      0.750000
   O      0.250000      0.500000      0.000000
   O      0.250000      0.500000      0.250000
   O      0.250000      0.500000      0.500000
   O      0.250000      0.500000      0.750000
   O      0.500000      0.500000      0.000000
   O      0.500000      0.500000      0.250000
   O      0.500000      0.500000      0.500000
   O      0.500000      0.500000      0.750000
   O      0.750000      0.500000      0.000000
   O      0.750000      0.500000      0.250000
   O      0.750000      0.500000      0.500000
   O      0.750000      0.500000      0.750000
   O      0.000000      0.000000      0.125000
   O      0.000000      0.000000      0.375000
   O      0.000000      0.000000      0.625000
   O      0.000000      0.000000      0.875000
   O      0.250000      0.000000      0.125000
   O      0.250000      0.000000      0.375000
   O      0.250000      0.000000      0.625000
   O      0.250000      0.000000      0.875000
   O      0.500000      0.000000      0.125000
   O      0.500000      0.000000      0.375000
   O      0.500000      0.000000      0.625000
   O      0.500000      0.000000      0.875000
   O      0.750000      0.000000      0.125000
   O      0.750000      0.000000      0.375000
   O      0.750000      0.000000      0.625000
   O      0.750000      0.000000      0.875000
   O      0.000000      0.500000      0.125000
   O      0.000000      0.500000      0.375000
   O      0.000000      0.500000      0.625000
   O      0.000000      0.500000      0.875000
   O      0.250000      0.500000      0.125000
   O      0.250000      0.500000      0.375000
   O      0.250000      0.500000      0.625000
   O      0.250000      0.500000      0.875000
   O      0.500000      0.500000      0.125000
   O      0.500000      0.500000      0.375000
   O      0.500000      0.500000      0.625000
   O      0.500000      0.500000      0.875000
   O      0.750000      0.500000      0.125000
   O      0.750000      0.500000      0.375000
   O      0.750000      0.500000      0.625000
   O      0.750000      0.500000      0.875000
species 5
K  core  1.0
Sr core  2.0
Ti core  4.0
Nb core  5.0
O  core -2.0
output cif cell2.cif
