single
title
Quadruple Perovskite
end
cell
3.9500  22.344574  22.344574   60.000   45.000   90.000
frac
K      0.0000   0.0000   0.0000
K      0.0000   0.0000   0.5000
Sr     0.0000   0.5000   0.0000
Sr     0.0000   0.5000   0.5000
K      0.0000   0.2500   0.0000
K      0.0000   0.2500   0.5000
Sr     0.0000   0.7500   0.0000
Sr     0.0000   0.7500   0.5000
K      0.0000   0.0000   0.2500
K      0.0000   0.0000   0.7500
Sr     0.0000   0.5000   0.2500
Sr     0.0000   0.5000   0.7500
K      0.0000   0.2500   0.2500
K      0.0000   0.2500   0.7500
Sr     0.0000   0.7500   0.2500
Sr     0.0000   0.7500   0.7500
Nb     0.5000   0.1250   0.0000
Ti     0.5000   0.1250   0.5000
Nb     0.5000   0.6250   0.0000
Ti     0.5000   0.6250   0.5000
Nb     0.5000   0.3750   0.0000
Ti     0.5000   0.3750   0.5000
Nb     0.5000   0.8750   0.0000
Ti     0.5000   0.8750   0.5000
Nb     0.5000   0.1250   0.2500
Ti     0.5000   0.1250   0.7500
Nb     0.5000   0.6250   0.2500
Ti     0.5000   0.6250   0.7500
Nb     0.5000   0.3750   0.2500
Ti     0.5000   0.3750   0.7500
Nb     0.5000   0.8750   0.2500
Ti     0.5000   0.8750   0.7500
O      0.0000   0.1250   0.0000
O      0.0000   0.1250   0.5000
O      0.0000   0.6250   0.0000
O      0.0000   0.6250   0.5000
O      0.0000   0.3750   0.0000
O      0.0000   0.3750   0.5000
O      0.0000   0.8750   0.0000
O      0.0000   0.8750   0.5000
O      0.0000   0.1250   0.2500
O      0.0000   0.1250   0.7500
O      0.0000   0.6250   0.2500
O      0.0000   0.6250   0.7500
O      0.0000   0.3750   0.2500
O      0.0000   0.3750   0.7500
O      0.0000   0.8750   0.2500
O      0.0000   0.8750   0.7500
O      0.0000   0.0000   0.1250
O      0.0000   0.0000   0.6250
O      0.0000   0.5000   0.1250
O      0.0000   0.5000   0.6250
O      0.0000   0.2500   0.1250
O      0.0000   0.2500   0.6250
O      0.0000   0.7500   0.1250
O      0.0000   0.7500   0.6250
O      0.0000   0.0000   0.3750
O      0.0000   0.0000   0.8750
O      0.0000   0.5000   0.3750
O      0.0000   0.5000   0.8750
O      0.0000   0.2500   0.3750
O      0.0000   0.2500   0.8750
O      0.0000   0.7500   0.3750
O      0.0000   0.7500   0.8750
O      0.0000   0.1250   0.1250
O      0.0000   0.1250   0.6250
O      0.0000   0.6250   0.1250
O      0.0000   0.6250   0.6250
O      0.0000   0.3750   0.1250
O      0.0000   0.3750   0.6250
O      0.0000   0.8750   0.1250
O      0.0000   0.8750   0.6250
O      0.0000   0.1250   0.3750
O      0.0000   0.1250   0.8750
O      0.0000   0.6250   0.3750
O      0.0000   0.6250   0.8750
O      0.0000   0.3750   0.3750
O      0.0000   0.3750   0.8750
O      0.0000   0.8750   0.3750
O      0.0000   0.8750   0.8750
species 5
K  core  1.0
Sr core  2.0
Ti core  4.0
Nb core  5.0
O  core -2.0
output cif cell2.cif
