single
title
Quadruple Perovskite
end
vectors
-7.90000 -7.90000 7.90000 
3.95000 -3.95000 0.00000 
3.95000 0.00000 3.95000 
frac
K  c 0.00000000 0.00000000 0.00000000 
K  c 0.16666667 0.66666667 0.66666667 
K  c 0.33333333 0.33333333 0.33333333 
Sr c 0.50000000 0.00000000 0.00000000 
Sr c 0.66666667 0.66666667 0.66666667 
Sr c 0.83333333 0.33333333 0.33333333 
Nb c 0.91666667 0.66666667 0.66666667 
Nb c 0.08333333 0.33333333 0.33333333 
Nb c 0.25000000 0.00000000 -0.00000000 
Ti c 0.41666667 0.66666667 0.66666667 
Ti c 0.58333333 0.33333333 0.33333333 
Ti c 0.75000000 0.00000000 0.00000000 
O  c 0.83333333 0.83333333 0.33333333 
O  c 0.00000000 0.00000000 0.50000000 
O  c 0.00000000 0.50000000 0.50000000 
O  c 0.00000000 0.50000000 0.00000000 
O  c 0.16666667 0.66666667 0.16666667 
O  c 0.16666667 0.16666667 0.16666667 
O  c 0.16666667 0.16666667 0.66666667 
O  c 0.33333333 0.33333333 0.83333333 
O  c 0.33333333 0.83333333 0.83333333 
O  c 0.33333333 0.83333333 0.33333333 
O  c 0.50000000 0.00000000 0.50000000 
O  c 0.50000000 0.50000000 0.50000000 
O  c 0.50000000 0.50000000 0.00000000 
O  c 0.66666667 0.66666667 0.16666667 
O  c 0.66666667 0.16666667 0.16666667 
O  c 0.66666667 0.16666667 0.66666667 
O  c 0.83333333 0.33333333 0.83333333 
O  c 0.83333333 0.83333333 0.83333333 
species 5
K  core  1.0
Sr core  2.0
Ti core  4.0
Nb core  5.0
O  core -2.0
output cif output.cif
